29
2 20 34 
3 22 12 53 
3 51 5 33 
2 24 40 
3 11 56 6 
1 9 
2 45 42 
3 30 41 27 
3 16 17 21 
2 37 59 
2 2 10 
3 46 39 35 
3 1 15 12 
1 42 
3 53 47 4 
2 58 32 
2 25 55 
1 3 
2 18 60 
2 23 50 
2 36 40 
3 14 38 49 
2 26 57 
3 43 8 24 
1 13 
1 52 
1 7 
1 28 
1 54 
